unsat
(define-fun InvF ((i Int) (sn Int)) Bool (or (and (= i 1) (= sn 0)) (and (= i 8) (= sn 7)) (and (= i 9) (= sn 8)) (and (= i 2) (= sn 1)) (and (= i 3) (= sn 2)) (and (= i 4) (= sn 3)) (and (= i 5) (= sn 4)) (and (= i 6) (= sn 5)) (and (= i 7) (= sn 6))))
0.02user 0.00system 0:00.02elapsed 96%CPU (0avgtext+0avgdata 25316maxresident)k
0inputs+8outputs (0major+1046minor)pagefaults 0swaps
